sat
(:arith-branch        3
 :arith-cube-calls    1
 :arith-cube-success  1
 :arith-dio-calls     3
 :arith-gcd-calls     4
 :arith-lower         21
 :arith-make-feasible 5
 :arith-max-columns   60
 :arith-max-rows      31
 :arith-patches       4
 :arith-upper         12
 :decisions           3
 :final-checks        4
 :max-memory          19.40
 :memory              18.71
 :mk-bool-var         33
 :num-allocs          1306933
 :num-checks          1
 :rlimit-count        5882
 :time                0.06
 :total-time          0.13)
